% Logging successfully configured
%%%mzn-stat: initTime=0.026960052
%%%mzn-stat: objective=556
%%%mzn-stat: nodes=2119
%%%mzn-stat: restarts=0
%%%mzn-stat: peakDepth=311
%%%mzn-stat: solveTime=0.041535924
%%%mzn-stat: variables=670
%%%mzn-stat: propagators=453
%%%mzn-stat: failures=173
%%%mzn-stat: propagations=15013
%%%mzn-stat: nogoods=173
%%%mzn-stat: numAtomicConstraintsPropagated=0
%%%mzn-stat: allDifferentNumber1TotalHallSetSize=1375
%%%mzn-stat: allDifferentNumber1NumberOfConflicts=172
%%%mzn-stat: allDifferentNumber1MaxHallSetSize=50
%%%mzn-stat: allDifferentNumber1PropagationsTotal=2772
%%%mzn-stat: allDifferentNumber1PropagationsThatFoundConflict=172
%%%mzn-stat: circuitNumber2PropagationsThatFoundConflict=1
%%%mzn-stat: circuitNumber2TotalFixedEdgesAtConflict=30
%%%mzn-stat: circuitNumber2NumberOfConflicts=1
%%%mzn-stat: circuitNumber2PropagationsThatPruned=77
%%%mzn-stat: circuitNumber2PropagationsTotal=1815
%%%mzn-stat: AverageConflictSize=6.624277456647399
%%%mzn-stat: NumUnitNogoodsLearned=0
%%%mzn-stat: AverageLearnedNogoodLength=7.104046242774566
%%%mzn-stat: AverageBacktrackAmount=0
%%%mzn-stat: AverageLbd=6.624277456647399
%%%mzn-stat: 2AutonomousSearchNumBackupCalled=272
%%%mzn-stat: 2AutonomousSearchNumPredicatesRemoved=0
%%%mzn-stat: 2AutonomousSearchNumCalls=273
%%%mzn-stat: 2AutonomousSearchNumPredicatesAdded=636
%%%mzn-stat: 2AutonomousSearchAverageSizeOfHeap=2.32967032967033
%%%mzn-stat: 2AutonomousSearchNumAssignedPredicatesEncountered=636
%%%mzn-stat-end
maxleg = 556;
succ = array1d(1..50,[4, 12, 8, 10, 1, 9, 14, 18, 29, 21, 3, 5, 37, 23, 11, 15, 27, 6, 16, 19, 41, 24, 22, 45, 28, 35, 42, 32, 36, 48, 39, 17, 50, 2, 40, 46, 44, 25, 13, 47, 43, 33, 26, 49, 34, 30, 38, 7, 20, 31]);
% time elapsed: 4.20 s
----------
%%%mzn-stat: initTime=0.026960052
%%%mzn-stat: objective=331
%%%mzn-stat: nodes=2600
%%%mzn-stat: restarts=0
%%%mzn-stat: peakDepth=311
%%%mzn-stat: solveTime=0.050905049
%%%mzn-stat: variables=670
%%%mzn-stat: propagators=453
%%%mzn-stat: failures=240
%%%mzn-stat: propagations=17858
%%%mzn-stat: nogoods=240
%%%mzn-stat: numAtomicConstraintsPropagated=0
%%%mzn-stat: allDifferentNumber1TotalHallSetSize=1840
%%%mzn-stat: allDifferentNumber1NumberOfConflicts=232
%%%mzn-stat: allDifferentNumber1MaxHallSetSize=50
%%%mzn-stat: allDifferentNumber1PropagationsTotal=3183
%%%mzn-stat: allDifferentNumber1PropagationsThatFoundConflict=232
%%%mzn-stat: circuitNumber2PropagationsThatFoundConflict=5
%%%mzn-stat: circuitNumber2TotalFixedEdgesAtConflict=170
%%%mzn-stat: circuitNumber2NumberOfConflicts=5
%%%mzn-stat: circuitNumber2PropagationsThatPruned=135
%%%mzn-stat: circuitNumber2PropagationsTotal=2077
%%%mzn-stat: AverageConflictSize=7.745833333333334
%%%mzn-stat: NumUnitNogoodsLearned=0
%%%mzn-stat: AverageLearnedNogoodLength=9.5
%%%mzn-stat: AverageBacktrackAmount=0
%%%mzn-stat: AverageLbd=7.6875
%%%mzn-stat: 2AutonomousSearchNumBackupCalled=537
%%%mzn-stat: 2AutonomousSearchNumPredicatesRemoved=0
%%%mzn-stat: 2AutonomousSearchNumCalls=539
%%%mzn-stat: 2AutonomousSearchNumPredicatesAdded=1403
%%%mzn-stat: 2AutonomousSearchAverageSizeOfHeap=2.9499072356215215
%%%mzn-stat: 2AutonomousSearchNumAssignedPredicatesEncountered=1590
%%%mzn-stat-end
maxleg = 331;
succ = array1d(1..50,[4, 12, 8, 10, 1, 9, 14, 18, 29, 21, 3, 5, 37, 23, 11, 15, 27, 6, 16, 19, 41, 24, 43, 45, 28, 35, 42, 32, 36, 22, 39, 17, 50, 2, 40, 46, 44, 25, 47, 30, 38, 33, 26, 49, 34, 48, 13, 7, 20, 31]);
% time elapsed: 4.20 s
----------
%%%mzn-stat: initTime=0.026960052
%%%mzn-stat: objective=327
%%%mzn-stat: nodes=3896
%%%mzn-stat: restarts=0
%%%mzn-stat: peakDepth=311
%%%mzn-stat: solveTime=0.129864341
%%%mzn-stat: variables=670
%%%mzn-stat: propagators=453
%%%mzn-stat: failures=767
%%%mzn-stat: propagations=36591
%%%mzn-stat: nogoods=767
%%%mzn-stat: numAtomicConstraintsPropagated=0
%%%mzn-stat: allDifferentNumber1TotalHallSetSize=5727
%%%mzn-stat: allDifferentNumber1NumberOfConflicts=653
%%%mzn-stat: allDifferentNumber1MaxHallSetSize=50
%%%mzn-stat: allDifferentNumber1PropagationsTotal=5727
%%%mzn-stat: allDifferentNumber1PropagationsThatFoundConflict=653
%%%mzn-stat: circuitNumber2PropagationsThatFoundConflict=59
%%%mzn-stat: circuitNumber2TotalFixedEdgesAtConflict=2308
%%%mzn-stat: circuitNumber2NumberOfConflicts=59
%%%mzn-stat: circuitNumber2PropagationsThatPruned=585
%%%mzn-stat: circuitNumber2PropagationsTotal=3575
%%%mzn-stat: AverageConflictSize=12.61147327249022
%%%mzn-stat: NumUnitNogoodsLearned=0
%%%mzn-stat: AverageLearnedNogoodLength=18.2490221642764
%%%mzn-stat: AverageBacktrackAmount=0
%%%mzn-stat: AverageLbd=11.428943937418513
%%%mzn-stat: 2AutonomousSearchNumBackupCalled=788
%%%mzn-stat: 2AutonomousSearchNumPredicatesRemoved=0
%%%mzn-stat: 2AutonomousSearchNumCalls=791
%%%mzn-stat: 2AutonomousSearchNumPredicatesAdded=2901
%%%mzn-stat: 2AutonomousSearchAverageSizeOfHeap=4.178255372945639
%%%mzn-stat: 2AutonomousSearchNumAssignedPredicatesEncountered=3305
%%%mzn-stat-end
maxleg = 327;
succ = array1d(1..50,[4, 12, 8, 10, 1, 9, 14, 18, 29, 21, 3, 5, 37, 23, 11, 15, 32, 6, 16, 31, 41, 24, 43, 45, 38, 35, 36, 19, 46, 22, 50, 28, 42, 2, 40, 17, 39, 47, 44, 30, 25, 27, 26, 49, 34, 48, 13, 7, 20, 33]);
% time elapsed: 4.27 s
----------
%%%mzn-stat: initTime=0.026960052
%%%mzn-stat: objective=320
%%%mzn-stat: nodes=4505481
%%%mzn-stat: restarts=0
%%%mzn-stat: peakDepth=311
%%%mzn-stat: solveTime=1410.095107858
%%%mzn-stat: variables=670
%%%mzn-stat: propagators=453
%%%mzn-stat: failures=4185892
%%%mzn-stat: propagations=130623606
%%%mzn-stat: nogoods=4185892
%%%mzn-stat: numAtomicConstraintsPropagated=0
%%%mzn-stat: allDifferentNumber1TotalHallSetSize=15618457
%%%mzn-stat: allDifferentNumber1NumberOfConflicts=1006508
%%%mzn-stat: allDifferentNumber1MaxHallSetSize=50
%%%mzn-stat: allDifferentNumber1PropagationsTotal=9565495
%%%mzn-stat: allDifferentNumber1PropagationsThatFoundConflict=1006508
%%%mzn-stat: circuitNumber2PropagationsThatFoundConflict=599333
%%%mzn-stat: circuitNumber2TotalFixedEdgesAtConflict=23141941
%%%mzn-stat: circuitNumber2NumberOfConflicts=599333
%%%mzn-stat: circuitNumber2PropagationsThatPruned=1430145
%%%mzn-stat: circuitNumber2PropagationsTotal=5044479
%%%mzn-stat: AverageConflictSize=21.207919841219027
%%%mzn-stat: NumUnitNogoodsLearned=0
%%%mzn-stat: AverageLearnedNogoodLength=36.75124059579177
%%%mzn-stat: AverageBacktrackAmount=0
%%%mzn-stat: AverageLbd=16.068871103220054
%%%mzn-stat: 2AutonomousSearchNumBackupCalled=1051
%%%mzn-stat: 2AutonomousSearchNumPredicatesRemoved=0
%%%mzn-stat: 2AutonomousSearchNumCalls=1055
%%%mzn-stat: 2AutonomousSearchNumPredicatesAdded=5778
%%%mzn-stat: 2AutonomousSearchAverageSizeOfHeap=5.945971563981042
%%%mzn-stat: 2AutonomousSearchNumAssignedPredicatesEncountered=6273
%%%mzn-stat-end
maxleg = 320;
succ = array1d(1..50,[4, 12, 8, 10, 1, 9, 14, 18, 30, 21, 3, 5, 37, 23, 11, 15, 27, 32, 16, 31, 41, 24, 43, 45, 28, 35, 36, 38, 6, 46, 50, 42, 19, 2, 22, 29, 39, 47, 44, 26, 25, 17, 40, 49, 34, 48, 13, 7, 20, 33]);
% time elapsed: 1414.24 s
----------
%%%mzn-stat: initTime=0.026960052
%%%mzn-stat: objective=272
%%%mzn-stat: nodes=4505769
%%%mzn-stat: restarts=0
%%%mzn-stat: peakDepth=311
%%%mzn-stat: solveTime=1410.100596473
%%%mzn-stat: variables=670
%%%mzn-stat: propagators=453
%%%mzn-stat: failures=4185895
%%%mzn-stat: propagations=130624895
%%%mzn-stat: nogoods=4185895
%%%mzn-stat: numAtomicConstraintsPropagated=0
%%%mzn-stat: allDifferentNumber1TotalHallSetSize=15618461
%%%mzn-stat: allDifferentNumber1NumberOfConflicts=1006510
%%%mzn-stat: allDifferentNumber1MaxHallSetSize=50
%%%mzn-stat: allDifferentNumber1PropagationsTotal=9565591
%%%mzn-stat: allDifferentNumber1PropagationsThatFoundConflict=1006510
%%%mzn-stat: circuitNumber2PropagationsThatFoundConflict=599334
%%%mzn-stat: circuitNumber2TotalFixedEdgesAtConflict=23141984
%%%mzn-stat: circuitNumber2NumberOfConflicts=599334
%%%mzn-stat: circuitNumber2PropagationsThatPruned=1430162
%%%mzn-stat: circuitNumber2PropagationsTotal=5044547
%%%mzn-stat: AverageConflictSize=21.207906075044882
%%%mzn-stat: NumUnitNogoodsLearned=0
%%%mzn-stat: AverageLearnedNogoodLength=36.75121783991237
%%%mzn-stat: AverageBacktrackAmount=0
%%%mzn-stat: AverageLbd=16.068862692446896
%%%mzn-stat: 2AutonomousSearchNumBackupCalled=1287
%%%mzn-stat: 2AutonomousSearchNumPredicatesRemoved=0
%%%mzn-stat: 2AutonomousSearchNumCalls=1292
%%%mzn-stat: 2AutonomousSearchNumPredicatesAdded=5878
%%%mzn-stat: 2AutonomousSearchAverageSizeOfHeap=7.152476780185759
%%%mzn-stat: 2AutonomousSearchNumAssignedPredicatesEncountered=9241
%%%mzn-stat-end
maxleg = 272;
succ = array1d(1..50,[4, 12, 8, 10, 1, 9, 14, 18, 30, 21, 3, 5, 37, 23, 11, 15, 27, 32, 16, 31, 41, 24, 45, 7, 28, 35, 36, 38, 46, 40, 50, 42, 19, 2, 22, 29, 39, 47, 44, 43, 25, 17, 26, 49, 34, 48, 13, 6, 20, 33]);
% time elapsed: 1414.25 s
----------
==========
% time elapsed: 1414.25 s
%%%mzn-stat: initTime=0.026960052
%%%mzn-stat: objective=272
%%%mzn-stat: nodes=4505769
%%%mzn-stat: restarts=0
%%%mzn-stat: peakDepth=311
%%%mzn-stat: solveTime=1410.101093055
%%%mzn-stat: variables=670
%%%mzn-stat: propagators=453
%%%mzn-stat: failures=4185896
%%%mzn-stat: propagations=130624983
%%%mzn-stat: nogoods=4185896
%%%mzn-stat: numAtomicConstraintsPropagated=0
%%%mzn-stat: allDifferentNumber1TotalHallSetSize=15618511
%%%mzn-stat: allDifferentNumber1NumberOfConflicts=1006511
%%%mzn-stat: allDifferentNumber1MaxHallSetSize=50
%%%mzn-stat: allDifferentNumber1PropagationsTotal=9565593
%%%mzn-stat: allDifferentNumber1PropagationsThatFoundConflict=1006511
%%%mzn-stat: circuitNumber2PropagationsThatFoundConflict=599334
%%%mzn-stat: circuitNumber2TotalFixedEdgesAtConflict=23141984
%%%mzn-stat: circuitNumber2NumberOfConflicts=599334
%%%mzn-stat: circuitNumber2PropagationsThatPruned=1430162
%%%mzn-stat: circuitNumber2PropagationsTotal=5044548
%%%mzn-stat: AverageConflictSize=21.207904353094296
%%%mzn-stat: NumUnitNogoodsLearned=1
%%%mzn-stat: AverageLearnedNogoodLength=36.751209299036574
%%%mzn-stat: AverageBacktrackAmount=0
%%%mzn-stat: AverageLbd=16.068859092533593
%%%mzn-stat: 2AutonomousSearchNumBackupCalled=1287
%%%mzn-stat: 2AutonomousSearchNumPredicatesRemoved=0
%%%mzn-stat: 2AutonomousSearchNumCalls=1292
%%%mzn-stat: 2AutonomousSearchNumPredicatesAdded=6084
%%%mzn-stat: 2AutonomousSearchAverageSizeOfHeap=7.152476780185759
%%%mzn-stat: 2AutonomousSearchNumAssignedPredicatesEncountered=9241
%%%mzn-stat-end
